problems/csplib-prob065/opd-models/noch/O2/minion/model_1-small_bibd_06_50_25-solution000001.solution
language Essence 1.3

letting lambda be 18
letting opd be
        {{17, 18, 21, 22, 23, 24, 25, 26, 29, 30, 31, 32, 33, 36, 37, 38, 39, 40, 43, 44, 45, 46, 48, 49, 50},
         {18, 20, 21, 22, 23, 24, 25, 27, 28, 29, 30, 31, 32, 34, 35, 36, 37, 38, 39, 41, 42, 43, 44, 45, 46},
         {19, 20, 21, 22, 23, 24, 25, 26, 27, 28, 29, 30, 31, 32, 33, 34, 35, 36, 37, 38, 39, 47, 48, 49, 50},
         {19, 20, 21, 22, 23, 24, 25, 26, 27, 28, 29, 30, 31, 32, 40, 41, 42, 43, 44, 45, 46, 47, 48, 49, 50},
         {19, 20, 21, 22, 23, 24, 25, 33, 34, 35, 36, 37, 38, 39, 40, 41, 42, 43, 44, 45, 46, 47, 48, 49, 50},
         {26, 27, 28, 29, 30, 31, 32, 33, 34, 35, 36, 37, 38, 39, 40, 41, 42, 43, 44, 45, 46, 47, 48, 49, 50}}
$ Visualisation for opd
$ 17 18 21 22 23 24 25 26 29 30 31 32 33 36 37 38 39 40 43 44 45 46 48 49 50
$ 18 20 21 22 23 24 25 27 28 29 30 31 32 34 35 36 37 38 39 41 42 43 44 45 46
$ 19 20 21 22 23 24 25 26 27 28 29 30 31 32 33 34 35 36 37 38 39 47 48 49 50
$ 19 20 21 22 23 24 25 26 27 28 29 30 31 32 40 41 42 43 44 45 46 47 48 49 50
$ 19 20 21 22 23 24 25 33 34 35 36 37 38 39 40 41 42 43 44 45 46 47 48 49 50
$ 26 27 28 29 30 31 32 33 34 35 36 37 38 39 40 41 42 43 44 45 46 47 48 49 50

